
  12   12
  10   10   10   10   10   10   10   10   10   10   10   10

   0   0   0   0   0   0   0   0   0   0   0   0   0   4 2 3 6 11 
   8   1   0   0   0   0   0   0   0   0   1   0   0   4 10 8 5 4 
   8   0   0   0   1   0   0   1   1   0   0   0   0   2 8 5 
   3   5   0   1   0   1   0   0   8   0   0   0   0   2 9 7 
   3   0   0   0   0   0   0   0   0   0   6   1   1   1 7 
   1   5   0   0   7   5   0   0   0   0   3   0   6   1 7 
   8   0   0   8   0   7   0   9   6   1   5   9   0   1 12
   8   0   0   6   0   0   0   0   0   0   0   0   8   1 12
   6   0   1   0   7   0   0   0   0   9   0   0   0   1 12
   9   0   0   0   0   0   5   5   0   0   0   0   0   1 12
   8   9   9   0   0   7   0   0   0   0  10   0   0   1 12
   0   0   0   0   0   0   0   0   0   0   0   0   0   0 
